row=7;
column=7;
left=[19, 0, 0, 0, 0, 22, 7];
right=[13, 0, 10, 12, 0, 7, 22];
top=[16, 19, 0, 0, 0, 7, 13];
bottom=[0, 15, 22, 0, 15, 0, 11];
Board=[|0,0,0,0,1,0,0|0,0,0,1,0,3,0|0,0,6,0,0,0,0|2,0,0,0,0,0,0|0,0,0,0,0,0,0|0,0,0,0,6,0,0|0,3,0,0,0,0,0|]